NAME : n80w180.005.470.tour
COMMENT : Length = 470
COMMENT : Found by LKH [Keld Helsgaun] Tue May  2 05:19:08 2017
TYPE : TOUR
DIMENSION : 81
TOUR_SECTION
1
17
74
34
80
6
46
45
72
10
56
32
49
64
51
78
48
54
63
27
25
58
22
62
77
5
11
73
28
53
66
69
4
14
61
75
55
33
57
41
47
44
29
9
59
70
8
15
7
16
65
35
38
50
23
76
31
36
68
30
19
2
79
40
20
21
18
67
3
26
71
13
12
42
37
39
24
60
81
43
52
-1
EOF
